(declare-fun temp7186_1 () (_ BitVec 64))
(declare-fun temp7186_2 () (_ BitVec 64))
(declare-fun var77740 () (_ BitVec 64))
(declare-fun k!0 () Bool)
(declare-fun ARGNAME_input_1_NAMEEND_DIM () (_ BitVec 64))
(declare-fun ARGNAME_data_format_NAMEEND_STRFMT () (_ BitVec 64))
(declare-fun temp7186_3 () (_ BitVec 64))
(declare-fun ARGNAME_input_2_NAMEEND_DIM () (_ BitVec 64))
(declare-fun var77770 () (_ BitVec 64))
(declare-fun temp7186_4 () (_ BitVec 64))
(declare-fun temp7186_5 () (_ BitVec 64))
(declare-fun ARGNAME_input_1_NAMEEND_DIMSIZE
             ()
             (Array (_ BitVec 64) (_ BitVec 64)))
(declare-fun temp7186_6 () (_ BitVec 64))
(declare-fun temp7186_7 () (_ BitVec 64))
(declare-fun temp7186_8 () (_ BitVec 64))
(declare-fun temp7186_9 () (_ BitVec 64))
(declare-fun temp7186_10 () (_ BitVec 64))
(declare-fun temp7186_11 () (_ BitVec 64))
(declare-fun temp7186_12 () (_ BitVec 64))
(declare-fun temp7186_13 () (_ BitVec 64))
(declare-fun temp7186_14 () (_ BitVec 64))
(declare-fun temp7186_15 () (_ BitVec 64))
(declare-fun temp7186_16 () (_ BitVec 64))
(declare-fun temp7186_17 () (_ BitVec 64))
(declare-fun temp7186_18 () (_ BitVec 64))
(declare-fun var77799 () (_ BitVec 64))
(declare-fun temp7186_19 () (_ BitVec 64))
(declare-fun ARGNAME_input_2_NAMEEND_DIMSIZE
             ()
             (Array (_ BitVec 64) (_ BitVec 64)))
(declare-fun temp7186_20 () (_ BitVec 64))
(declare-fun temp7186_21 () (_ BitVec 64))
(declare-fun temp7186_22 () (_ BitVec 64))
(declare-fun temp7186_23 () (_ BitVec 64))
(declare-fun temp7186_24 () (_ BitVec 64))
(declare-fun temp7186_25 () (_ BitVec 64))
(declare-fun temp7186_26 () (_ BitVec 64))
(declare-fun temp7186_27 () (_ BitVec 64))
(declare-fun temp7186_28 () (_ BitVec 64))
(declare-fun temp7186_29 () (_ BitVec 64))
(declare-fun temp7186_30 () (_ BitVec 64))
(declare-fun temp7186_31 () (_ BitVec 64))
(declare-fun temp7186_32 () (_ BitVec 64))
(declare-fun var77832 () (_ BitVec 64))
(declare-fun temp7186_33 () (_ BitVec 64))
(declare-fun temp7186_34 () (_ BitVec 64))
(declare-fun var77833 () (_ BitVec 64))
(declare-fun var77834 () (_ BitVec 64))
(declare-fun temp7186_35 () (_ BitVec 64))
(declare-fun temp7186_36 () (_ BitVec 64))
(declare-fun var275510 () (_ BitVec 64))
(declare-fun temp7186_37 () (_ BitVec 64))
(declare-fun var275528 () (_ BitVec 64))
(declare-fun temp7186_38 () (_ BitVec 64))
(declare-fun temp7186_40 () (_ BitVec 64))
(declare-fun temp7186_39 () (_ BitVec 64))
(declare-fun temp7186_42 () (_ BitVec 64))
(declare-fun temp7186_41 () (_ BitVec 64))
(declare-fun temp7186_43 () (_ BitVec 64))
(declare-fun var406582 () (_ BitVec 64))
(declare-fun temp7186_44 () (_ BitVec 64))
(declare-fun var406600 () (_ BitVec 64))
(declare-fun temp7186_45 () (_ BitVec 64))
(declare-fun temp7186_46 () (_ BitVec 64))
(declare-fun var537654 () (_ BitVec 64))
(declare-fun temp7186_47 () (_ BitVec 64))
(declare-fun var537672 () (_ BitVec 64))
(declare-fun temp7186_48 () (_ BitVec 64))
(declare-fun temp7186_50 () (_ BitVec 64))
(declare-fun temp7186_49 () (_ BitVec 64))
(declare-fun temp7186_52 () (_ BitVec 64))
(declare-fun temp7186_51 () (_ BitVec 64))
(declare-fun temp7186_54 () (_ BitVec 64))
(declare-fun temp7186_53 () (_ BitVec 64))
(declare-fun temp7186_56 () (_ BitVec 64))
(declare-fun temp7186_55 () (_ BitVec 64))
(declare-fun temp7186_57 () (_ BitVec 64))
(declare-fun var795723 () (_ BitVec 64))
(declare-fun var795702 () (_ BitVec 64))
(declare-fun var730134 () (_ BitVec 64))
(declare-fun temp7186_58 () (_ BitVec 64))
(declare-fun temp7186_59 () (_ BitVec 64))
(declare-fun var861259 () (_ BitVec 64))
(declare-fun var861238 () (_ BitVec 64))
(declare-fun var730144 () (_ BitVec 64))
(declare-fun temp7186_60 () (_ BitVec 64))
(declare-fun temp7186_61 () (_ BitVec 64))
(declare-fun var926795 () (_ BitVec 64))
(declare-fun var926774 () (_ BitVec 64))
(declare-fun var730147 () (_ BitVec 64))
(declare-fun temp7186_62 () (_ BitVec 64))
(declare-fun temp7186_64 () (_ BitVec 64))
(declare-fun temp7186_63 () (_ BitVec 64))
(declare-fun temp7186_66 () (_ BitVec 64))
(declare-fun temp7186_65 () (_ BitVec 64))
(declare-fun temp7186_68 () (_ BitVec 64))
(declare-fun temp7186_67 () (_ BitVec 64))
(declare-fun temp7186_69 () (_ BitVec 64))
(declare-fun var1057842 () (_ BitVec 64))
(declare-fun temp7186_70 () (_ BitVec 64))
(declare-fun var1057843 () (_ BitVec 64))
(declare-fun var1057844 () (_ BitVec 64))
(declare-fun var1057840 () (_ BitVec 64))
(declare-fun var664540 () (_ BitVec 64))
(declare-fun temp7186_71 () (_ BitVec 64))
(declare-fun var1123378 () (_ BitVec 64))
(declare-fun temp7186_72 () (_ BitVec 64))
(declare-fun var1123379 () (_ BitVec 64))
(declare-fun var1123380 () (_ BitVec 64))
(declare-fun var1123376 () (_ BitVec 64))
(declare-fun var664547 () (_ BitVec 64))
(declare-fun temp7186_73 () (_ BitVec 64))
(declare-fun var1188914 () (_ BitVec 64))
(declare-fun temp7186_74 () (_ BitVec 64))
(declare-fun var1188915 () (_ BitVec 64))
(declare-fun var1188916 () (_ BitVec 64))
(declare-fun var1188912 () (_ BitVec 64))
(declare-fun var664552 () (_ BitVec 64))
(declare-fun var78095 () (_ BitVec 64))
(declare-fun temp7186_75 () (_ BitVec 64))
(declare-fun temp7186_76 () (_ BitVec 64))
(declare-fun var78096 () (_ BitVec 64))
(declare-fun var78179 () (_ BitVec 64))
(declare-fun temp7186_78 () (_ BitVec 64))
(declare-fun temp7186_77 () (_ BitVec 64))
(declare-fun temp7186_80 () (_ BitVec 64))
(declare-fun temp7186_79 () (_ BitVec 64))
(declare-fun temp7186_81 () (_ BitVec 64))
(declare-fun var78544 () (_ BitVec 64))
(declare-fun temp7186_82 () (_ BitVec 64))
(declare-fun var78545 () (_ BitVec 64))
(assert (or (= ARGNAME_data_format_NAMEEND_STRFMT #x0000000000000000)
    (= ARGNAME_data_format_NAMEEND_STRFMT #x0000000000000001)
    (= ARGNAME_data_format_NAMEEND_STRFMT #x0000000000000002)
    (= ARGNAME_data_format_NAMEEND_STRFMT #x0000000000000003)
    (= ARGNAME_data_format_NAMEEND_STRFMT #x0000000000000004)
    (= ARGNAME_data_format_NAMEEND_STRFMT #x0000000000000005)))
(assert (= temp7186_1 #x0000000000000005))
(assert (= var77740
   (ite (= ARGNAME_input_1_NAMEEND_DIM temp7186_1)
        #x0000000000000001
        #x0000000000000000)))
(assert (= temp7186_2 #x0000000000000001))
(assert (= var77740 temp7186_2))
(assert (= temp7186_3 #x0000000000000005))
(assert (= var77770
   (ite (= ARGNAME_input_2_NAMEEND_DIM temp7186_3)
        #x0000000000000001
        #x0000000000000000)))
(assert (= temp7186_4 #x0000000000000001))
(assert (= var77770 temp7186_4))
(assert (= temp7186_5 #x0000000000000000))
(assert (= temp7186_6 (select ARGNAME_input_1_NAMEEND_DIMSIZE temp7186_5)))
(assert (= temp7186_7 #x0000000000000001))
(assert (= temp7186_8 (select ARGNAME_input_1_NAMEEND_DIMSIZE temp7186_7)))
(assert (= temp7186_9 #x0000000000000002))
(assert (= temp7186_10 (select ARGNAME_input_1_NAMEEND_DIMSIZE temp7186_9)))
(assert (= temp7186_11 #x0000000000000003))
(assert (= temp7186_12 (select ARGNAME_input_1_NAMEEND_DIMSIZE temp7186_11)))
(assert (= temp7186_13 #x0000000000000004))
(assert (= temp7186_14 (select ARGNAME_input_1_NAMEEND_DIMSIZE temp7186_13)))
(assert (= temp7186_15 #x0000000000000005))
(assert (= temp7186_16 (select ARGNAME_input_1_NAMEEND_DIMSIZE temp7186_15)))
(assert (= temp7186_17 #x0000000000000003))
(assert (= temp7186_18 (select ARGNAME_input_1_NAMEEND_DIMSIZE temp7186_17)))
(assert (= var77799 temp7186_18))
(assert (= temp7186_19 #x0000000000000000))
(assert (= temp7186_20 (select ARGNAME_input_2_NAMEEND_DIMSIZE temp7186_19)))
(assert (= temp7186_21 #x0000000000000001))
(assert (= temp7186_22 (select ARGNAME_input_2_NAMEEND_DIMSIZE temp7186_21)))
(assert (= temp7186_23 #x0000000000000002))
(assert (= temp7186_24 (select ARGNAME_input_2_NAMEEND_DIMSIZE temp7186_23)))
(assert (= temp7186_25 #x0000000000000003))
(assert (= temp7186_26 (select ARGNAME_input_2_NAMEEND_DIMSIZE temp7186_25)))
(assert (= temp7186_27 #x0000000000000004))
(assert (= temp7186_28 (select ARGNAME_input_2_NAMEEND_DIMSIZE temp7186_27)))
(assert (= temp7186_29 #x0000000000000005))
(assert (= temp7186_30 (select ARGNAME_input_2_NAMEEND_DIMSIZE temp7186_29)))
(assert (= temp7186_31 #x0000000000000004))
(assert (= temp7186_32 (select ARGNAME_input_2_NAMEEND_DIMSIZE temp7186_31)))
(assert (= var77832 temp7186_32))
(assert (= temp7186_33 #x0000000000000004))
(assert (= temp7186_34 (select ARGNAME_input_1_NAMEEND_DIMSIZE temp7186_33)))
(assert (= var77833 temp7186_34))
(assert (= var77834 (ite (= var77832 var77833) #x0000000000000001 #x0000000000000000)))
(assert (= temp7186_35 #x0000000000000001))
(assert (= var77834 temp7186_35))
(assert (= temp7186_36 #x0000000000000001))
(assert (= var275510 temp7186_36))
(assert (= temp7186_37 #x0000000000000001))
(assert (= var275528
   (ite (bvslt var275510 temp7186_37) #x0000000000000001 #x0000000000000000)))
(assert (= temp7186_38 #x0000000000000000))
(assert (= var275528 temp7186_38))
(assert (= temp7186_40 #x0000000000000000))
(assert (= temp7186_39 temp7186_40))
(assert (= temp7186_42 #x0000000000000000))
(assert (= temp7186_41 temp7186_42))
(assert (= temp7186_43 #x0000000000000001))
(assert (= var406582 temp7186_43))
(assert (= temp7186_44 #x0000000000000001))
(assert (= var406600
   (ite (bvslt var406582 temp7186_44) #x0000000000000001 #x0000000000000000)))
(assert (= temp7186_45 #x0000000000000000))
(assert (= var406600 temp7186_45))
(assert (= temp7186_46 #x0000000000000001))
(assert (= var537654 temp7186_46))
(assert (= temp7186_47 #x0000000000000001))
(assert (= var537672
   (ite (bvslt var537654 temp7186_47) #x0000000000000001 #x0000000000000000)))
(assert (= temp7186_48 #x0000000000000000))
(assert (= var537672 temp7186_48))
(assert (= temp7186_50 #x0000000000000000))
(assert (= temp7186_49 temp7186_50))
(assert (= temp7186_52 #x00000000000000ff))
(assert (= temp7186_51 temp7186_52))
(assert (= temp7186_54 #x00000000000000ff))
(assert (= temp7186_53 temp7186_54))
(assert (= temp7186_56 #x00000000000000ff))
(assert (= temp7186_55 temp7186_56))
(assert (= temp7186_57 #x0000000000000000))
(assert (= var795723 temp7186_57))
(assert (= var795702 var795723))
(assert (= var730134 var795702))
(assert (= temp7186_58 #x0000000000000000))
(assert (= var730134 temp7186_58))
(assert (= temp7186_59 #x0000000000000000))
(assert (= var861259 temp7186_59))
(assert (= var861238 var861259))
(assert (= var730144 var861238))
(assert (= temp7186_60 #x0000000000000000))
(assert (= var730144 temp7186_60))
(assert (= temp7186_61 #x0000000000000000))
(assert (= var926795 temp7186_61))
(assert (= var926774 var926795))
(assert (= var730147 var926774))
(assert (= temp7186_62 #x0000000000000000))
(assert (= var730147 temp7186_62))
(assert (= temp7186_64 #x0000000000000000))
(assert (= temp7186_63 temp7186_64))
(assert (= temp7186_66 #x0000000000000000))
(assert (= temp7186_65 temp7186_66))
(assert (= temp7186_68 #x0000000000000000))
(assert (= temp7186_67 temp7186_68))
(assert (= temp7186_69 #x0000000000008000))
(assert (= var1057842 temp7186_69))
(assert (= temp7186_70 #x0000000000000001))
(assert (= var1057843
   (ite (bvslt temp7186_67 temp7186_70) #x0000000000000001 #x0000000000000000)))
(assert (= var1057844 (ite (= var1057843 #x0000000000000001) var1057842 temp7186_67)))
(assert (= var1057840 var1057844))
(assert (= var664540 var1057840))
(assert (= temp7186_71 #x0000000000040000))
(assert (= var1123378 temp7186_71))
(assert (= temp7186_72 #x0000000000000001))
(assert (= var1123379
   (ite (bvslt temp7186_65 temp7186_72) #x0000000000000001 #x0000000000000000)))
(assert (= var1123380 (ite (= var1123379 #x0000000000000001) var1123378 temp7186_65)))
(assert (= var1123376 var1123380))
(assert (= var664547 var1123376))
(assert (= temp7186_73 #x0000000000200000))
(assert (= var1188914 temp7186_73))
(assert (= temp7186_74 #x0000000000000001))
(assert (= var1188915
   (ite (bvslt temp7186_63 temp7186_74) #x0000000000000001 #x0000000000000000)))
(assert (= var1188916 (ite (= var1188915 #x0000000000000001) var1188914 temp7186_63)))
(assert (= var1188912 var1188916))
(assert (= var664552 var1188912))
(assert (= var78095 var664552))
(assert (= temp7186_75 #x0000000000000003))
(assert (= temp7186_76 #xffffffffffffffff))
(assert (= var78179 (bvadd var78096 temp7186_76)))
(assert (= temp7186_78 #x0000000000000001))
(assert (= temp7186_77 temp7186_78))
(assert (= temp7186_80 #x0000000000000001))
(assert (= temp7186_79 temp7186_80))
(assert (= temp7186_81 #x0000000000000000))
(assert (= var78544 temp7186_81))
(assert (= temp7186_82 #x0000000000000001))
(assert (= var78545 (bvadd var78544 temp7186_82)))
(model-add temp7186_1 () (_ BitVec 64) #x0000000000000005)
(model-add temp7186_2 () (_ BitVec 64) #x0000000000000001)
(model-add var77740 () (_ BitVec 64) #x0000000000000001)
(model-del k!0)
(model-add ARGNAME_input_1_NAMEEND_DIM
           ()
           (_ BitVec 64)
           (ite k!0 #x0000000000000005 (bvnot #x0000000000000005)))

